100
150
100
100
99
99
97
97
95
95
95
94
94
93
93
93
92
91
91
91
91
91
89
89
86
86
85
85
84
82
81
81
79
79
78
76
75
74
74
74
74
73
73
71
70
70
69
69
67
67
67
66
66
66
66
65
65
64
64
63
63
62
61
61
61
60
60
58
57
54
54
53
53
53
52
52
51
50
48
48
47
46
46
46
45
44
42
40
39
39
39
37
36
35
34
33
33
33
32
32
30
30
